NAME: P-n16-k8
COMMENT: 16 nodes, 8 vehicles problem
TYPE: CVRP
DIMENSION: 16
EDGE_WEIGHT_TYPE: EUC_2D
CAPACITY: 100
NODE_COORD_SECTION
1 11.5055 60.9067
2 13.3391 24.0590
3 32.7139 85.9137
4 66.6090 54.1162
5 2.9014 73.3748
6 39.4950 80.2047
7 25.4421 5.6885
8 86.6649 22.1029
9 40.4989 31.6096
10 7.6663 84.3225
11 84.8939 97.1465
12 38.5377 95.4488
13 44.5758 66.9725
14 8.2500 89.7099
15 29.8004 26.2305
16 0.5130 54.3203
DEMAND_SECTION
1 0
2 11
3 8
4 4
5 3
6 15
7 11
8 19
9 4
10 7
11 7
12 13
13 5
14 15
15 9
16 11
DEPOT_SECTION
1
-1
EOF
